solution status: optimal solution found
objective value:                                    0
shell_i_$_156                                       1 	(obj:0)
shell_i_$_170                                       1 	(obj:0)
shell_i_$_48                                        1 	(obj:0)
shell_j_$_138                                       1 	(obj:0)
shell_i_$_101                                       1 	(obj:0)
shell_i_$_135__4                                    1 	(obj:0)
shell_j_$_86                                        1 	(obj:0)
shell_i_$_168__4                                    1 	(obj:0)
shell_j_$_182                                       1 	(obj:0)
shell_i_$_106                                       1 	(obj:0)
shell_j_$_139                                       1 	(obj:0)
shell_i_$_40                                        1 	(obj:0)
shell_j_$_37                                        1 	(obj:0)
shell_i_$_145                                       1 	(obj:0)
shell_j_$_134__4                                    1 	(obj:0)
shell_i_$_167__4                                    1 	(obj:0)
shell_i_$_44                                        1 	(obj:0)
shell_i_$_130__4                                    1 	(obj:0)
shell_j_$_45                                        1 	(obj:0)
shell_i_$_77                                        1 	(obj:0)
shell_i_$_143                                       1 	(obj:0)
shell_i_$_146                                       1 	(obj:0)
shell_i_$_176                                       1 	(obj:0)
shell_i_$_171                                       1 	(obj:0)
shell_i_$_117                                       1 	(obj:0)
shell_i_$_137                                       1 	(obj:0)
shell_i_$_160                                       1 	(obj:0)
shell_i_$_163__4                                    1 	(obj:0)
shell_i_$_152__4                                    1 	(obj:0)
shell_j_$_25                                        1 	(obj:0)
shell_i_$_177                                       1 	(obj:0)
shell_j_$_119                                       1 	(obj:0)
shell_i_$_108                                       1 	(obj:0)
shell_i_$_165__4                                    1 	(obj:0)
shell_i_$_39                                        1 	(obj:0)
shell_i_$_35                                        1 	(obj:0)
shell_j_$_62                                        1 	(obj:0)
shell_i_$_159                                       1 	(obj:0)
shell_j_$_23                                        1 	(obj:0)
shell_i_$_172                                       1 	(obj:0)
shell_i_$_161                                       1 	(obj:0)
shell_i_$_132__4                                    1 	(obj:0)
shell_i_$_80                                        1 	(obj:0)
shell_j_$_36                                        1 	(obj:0)
shell_i_$_178                                       1 	(obj:0)
shell_i_$_144                                       1 	(obj:0)
shell_i_$_26                                        1 	(obj:0)
shell_i_$_99                                        1 	(obj:0)
shell_i_$_22                                        1 	(obj:0)
shell_i_$_107                                       1 	(obj:0)
shell_i_$_151__4                                    1 	(obj:0)
shell_j_$_46                                        1 	(obj:0)
shell_i_$_162                                       1 	(obj:0)
shell_i_$_128                                       1 	(obj:0)
shell_j_$_47                                        1 	(obj:0)
shell_i_$_155                                       1 	(obj:0)
shell_j_$_56                                        1 	(obj:0)
shell_i_$_184                                       1 	(obj:0)
shell_i_$_118                                       1 	(obj:0)
shell_j_$_87                                        1 	(obj:0)
shell_j_$_183                                       1 	(obj:0)
shell_i_$_149__4                                    1 	(obj:0)
shell_i_$_98                                        1 	(obj:0)
shell_j_$_58                                        1 	(obj:0)
shell_i_$_59                                        1 	(obj:0)
shell_j_$_175                                       1 	(obj:0)
shell_i_$_100                                       1 	(obj:0)
shell_i_$_154                                       1 	(obj:0)
shell_j_$_34                                        1 	(obj:0)
shell_j_$_95                                        1 	(obj:0)
shell_j_$_85                                        1 	(obj:0)
shell_i_$_61                                        1 	(obj:0)
shell_j_$_129                                       1 	(obj:0)
shell_j_$_57                                        1 	(obj:0)
shell_i_$_147__4                                    1 	(obj:0)
shell_i_$_24                                        1 	(obj:0)
$_177_z                                           -22 	(obj:0)
$_37_x                                              5 	(obj:0)
$_37_y                                              6 	(obj:0)
$_119_x                                             2 	(obj:0)
$_119_y                                             6 	(obj:0)
$_119_z                                           -23 	(obj:0)
$_37_z                                            -21 	(obj:0)
$_156_x                                             6 	(obj:0)
$_108_x                                             6 	(obj:0)
$_108_y                                            -2 	(obj:0)
$_108_z                                           -24 	(obj:0)
$_135__4_x                                          6 	(obj:0)
$_145_x                                             6 	(obj:0)
$_165__4_x                                          6 	(obj:0)
$_165__4_y                                          6 	(obj:0)
$_165__4_z                                        -20 	(obj:0)
$_145_y                                             2 	(obj:0)
$_145_z                                           -22 	(obj:0)
$_39_x                                              6 	(obj:0)
$_39_z                                            -25 	(obj:0)
$_135__4_z                                        -19 	(obj:0)
$_35_x                                              6 	(obj:0)
$_35_z                                            -21 	(obj:0)
$_134__4_x                                          5 	(obj:0)
$_134__4_y                                          6 	(obj:0)
$_62_x                                              3 	(obj:0)
$_62_y                                             -6 	(obj:0)
$_62_z                                            -25 	(obj:0)
$_134__4_z                                        -15 	(obj:0)
$_48_x                                              6 	(obj:0)
$_159_x                                             6 	(obj:0)
$_159_y                                             2 	(obj:0)
$_159_z                                           -21 	(obj:0)
$_48_y                                             -6 	(obj:0)
$_167__4_x                                          6 	(obj:0)
$_23_x                                              3 	(obj:0)
$_23_y                                             -6 	(obj:0)
$_23_z                                            -19 	(obj:0)
$_167__4_y                                          5 	(obj:0)
$_167__4_z                                        -12 	(obj:0)
$_172_x                                             6 	(obj:0)
$_172_z                                           -22 	(obj:0)
$_86_x                                              2 	(obj:0)
$_86_y                                             -6 	(obj:0)
$_161_x                                             6 	(obj:0)
$_161_y                                            -1 	(obj:0)
$_161_z                                           -21 	(obj:0)
$_44_x                                              6 	(obj:0)
$_44_y                                             -2 	(obj:0)
$_132__4_x                                          6 	(obj:0)
$_132__4_y                                          6 	(obj:0)
$_132__4_z                                        -25 	(obj:0)
$_44_z                                            -25 	(obj:0)
$_86_z                                            -25 	(obj:0)
$_80_x                                              6 	(obj:0)
$_80_y                                              1 	(obj:0)
$_80_z                                            -25 	(obj:0)
$_48_z                                            -24 	(obj:0)
$_130__4_x                                          6 	(obj:0)
$_36_y                                              6 	(obj:0)
$_36_z                                            -25 	(obj:0)
$_130__4_y                                          6 	(obj:0)
$_130__4_z                                        -15 	(obj:0)
$_178_x                                             6 	(obj:0)
$_178_y                                             5 	(obj:0)
$_178_z                                           -18 	(obj:0)
$_156_y                                             3 	(obj:0)
$_168__4_x                                          6 	(obj:0)
$_144_x                                             6 	(obj:0)
$_144_y                                             5 	(obj:0)
$_144_z                                           -25 	(obj:0)
$_45_x                                              1 	(obj:0)
$_45_y                                             -6 	(obj:0)
$_26_x                                              6 	(obj:0)
$_26_y                                             -2 	(obj:0)
$_26_z                                            -19 	(obj:0)
$_45_z                                            -25 	(obj:0)
$_168__4_y                                          1 	(obj:0)
$_99_x                                              6 	(obj:0)
$_99_y                                              4 	(obj:0)
$_99_z                                            -18 	(obj:0)
$_168__4_z                                        -24 	(obj:0)
$_77_x                                              6 	(obj:0)
$_22_x                                              6 	(obj:0)
$_22_y                                             -1 	(obj:0)
$_22_z                                            -25 	(obj:0)
$_77_y                                             -2 	(obj:0)
$_77_z                                            -23 	(obj:0)
$_107_x                                             6 	(obj:0)
$_107_y                                            -2 	(obj:0)
$_107_z                                           -21 	(obj:0)
$_170_x                                             6 	(obj:0)
$_138_x                                             6 	(obj:0)
$_151__4_x                                          6 	(obj:0)
$_151__4_y                                          3 	(obj:0)
$_151__4_z                                        -15 	(obj:0)
$_143_x                                             6 	(obj:0)
$_143_y                                             2 	(obj:0)
$_46_x                                              5 	(obj:0)
$_46_y                                             -6 	(obj:0)
$_46_z                                            -25 	(obj:0)
$_143_z                                           -24 	(obj:0)
$_182_x                                             6 	(obj:0)
$_162_x                                             6 	(obj:0)
$_162_y                                             3 	(obj:0)
$_162_z                                           -17 	(obj:0)
$_182_y                                             6 	(obj:0)
$_146_x                                             6 	(obj:0)
$_128_x                                             6 	(obj:0)
$_128_y                                             2 	(obj:0)
$_128_z                                           -23 	(obj:0)
$_146_y                                             6 	(obj:0)
$_146_z                                           -21 	(obj:0)
$_47_y                                             -6 	(obj:0)
$_47_z                                            -25 	(obj:0)
$_182_z                                           -14 	(obj:0)
$_138_y                                             6 	(obj:0)
$_155_x                                             6 	(obj:0)
$_155_y                                             2 	(obj:0)
$_155_z                                           -18 	(obj:0)
$_176_x                                             6 	(obj:0)
$_176_y                                             2 	(obj:0)
$_56_y                                              6 	(obj:0)
$_56_z                                            -20 	(obj:0)
$_176_z                                           -17 	(obj:0)
$_138_z                                           -19 	(obj:0)
$_184_x                                             6 	(obj:0)
$_184_y                                            -2 	(obj:0)
$_184_z                                           -22 	(obj:0)
$_106_x                                             6 	(obj:0)
$_171_x                                             6 	(obj:0)
$_118_x                                             6 	(obj:0)
$_118_y                                             5 	(obj:0)
$_118_z                                           -19 	(obj:0)
$_171_y                                             3 	(obj:0)
$_171_z                                           -18 	(obj:0)
$_87_x                                              2 	(obj:0)
$_87_y                                             -6 	(obj:0)
$_87_z                                            -24 	(obj:0)
$_106_y                                            -6 	(obj:0)
$_106_z                                           -20 	(obj:0)
$_183_x                                             6 	(obj:0)
$_183_y                                            -6 	(obj:0)
$_183_z                                           -25 	(obj:0)
$_117_x                                             6 	(obj:0)
$_117_y                                             6 	(obj:0)
$_149__4_x                                          6 	(obj:0)
$_149__4_y                                          2 	(obj:0)
$_149__4_z                                        -19 	(obj:0)
$_117_z                                           -16 	(obj:0)
$_170_y                                             1 	(obj:0)
$_98_x                                              6 	(obj:0)
$_98_y                                              5 	(obj:0)
$_98_z                                            -17 	(obj:0)
$_170_z                                           -17 	(obj:0)
$_137_x                                             6 	(obj:0)
$_58_x                                              6 	(obj:0)
$_58_y                                              6 	(obj:0)
$_58_z                                            -22 	(obj:0)
$_137_y                                             6 	(obj:0)
$_137_z                                           -18 	(obj:0)
$_59_x                                              6 	(obj:0)
$_59_y                                              6 	(obj:0)
$_59_z                                            -13 	(obj:0)
$_139_x                                             5 	(obj:0)
$_139_y                                             6 	(obj:0)
$_175_x                                             6 	(obj:0)
$_175_y                                             6 	(obj:0)
$_175_z                                           -17 	(obj:0)
$_160_x                                             6 	(obj:0)
$_160_y                                             5 	(obj:0)
$_100_x                                             6 	(obj:0)
$_100_y                                             4 	(obj:0)
$_100_z                                           -22 	(obj:0)
$_160_z                                           -21 	(obj:0)
$_139_z                                           -20 	(obj:0)
$_154_x                                             6 	(obj:0)
$_154_y                                             4 	(obj:0)
$_154_z                                           -17 	(obj:0)
$_101_x                                             6 	(obj:0)
$_163__4_x                                          6 	(obj:0)
$_34_x                                              5 	(obj:0)
$_34_y                                              6 	(obj:0)
$_34_z                                            -25 	(obj:0)
$_163__4_z                                        -13 	(obj:0)
$_95_x                                              4 	(obj:0)
$_95_y                                             -6 	(obj:0)
$_95_z                                            -25 	(obj:0)
$_101_y                                             5 	(obj:0)
$_40_x                                              6 	(obj:0)
$_85_x                                              6 	(obj:0)
$_85_y                                             -6 	(obj:0)
$_85_z                                            -21 	(obj:0)
$_152__4_x                                          6 	(obj:0)
$_152__4_y                                          5 	(obj:0)
$_61_x                                              6 	(obj:0)
$_61_y                                             -3 	(obj:0)
$_61_z                                            -25 	(obj:0)
$_152__4_z                                        -24 	(obj:0)
$_40_y                                             -5 	(obj:0)
$_129_x                                             2 	(obj:0)
$_129_y                                             6 	(obj:0)
$_129_z                                           -20 	(obj:0)
$_40_z                                            -25 	(obj:0)
$_25_x                                              2 	(obj:0)
$_57_x                                              6 	(obj:0)
$_57_y                                              6 	(obj:0)
$_57_z                                            -12 	(obj:0)
$_25_y                                             -6 	(obj:0)
$_25_z                                            -19 	(obj:0)
$_147__4_x                                          6 	(obj:0)
$_147__4_z                                        -15 	(obj:0)
$_101_z                                           -14 	(obj:0)
$_156_z                                           -19 	(obj:0)
$_24_x                                              6 	(obj:0)
$_24_z                                            -20 	(obj:0)
$_177_x                                             6 	(obj:0)
$_177_y                                             1 	(obj:0)
